
;this file is automatically generated: Sun Oct 25 10:43:47 CST 2020

;declarations generated

(declare-fun type_511f0b24_a710_4c71_bbd5_28875b97d38a_Class21 ( Int) Bool)
(declare-fun type_511f0b24_a710_4c71_bbd5_28875b97d38a_Class13 ( Int) Bool)
(declare-fun type_511f0b24_a710_4c71_bbd5_28875b97d38a_Class19 ( Int) Bool)
(declare-fun oclExcludes ( Int Int) Bool)
(declare-fun type_511f0b24_a710_4c71_bbd5_28875b97d38a_Class12 ( Int) Bool)
(declare-fun Cardinality ( Int) Int)
(declare-fun class12_Class12IntAttr4 ( Int) Int)
(declare-fun class12_Class12IntAttr3 ( Int) Int)
(declare-fun oclSelect ( Int Bool) Int)
(declare-fun Enum0 ( Int) Int)
(declare-fun Enum1 ( Int) Int)
(declare-fun container_ ( Int) Int)
(declare-fun obj_dfaa7ff6_b7af_42fb_bf03_b086e00980cd ( Int) Int)
(declare-fun oclIncludes ( Int Int) Bool)
(declare-fun ObjAt ( Int Int) Int)

;formula(s) generated
(assert (! (forall ((c2_1 Int)(c2_2 Int)) (=> (and (and (and (and ( type_511f0b24_a710_4c71_bbd5_28875b97d38a_Class12 c2_1 )  ( type_511f0b24_a710_4c71_bbd5_28875b97d38a_Class13 c2_1 ) ) ( type_511f0b24_a710_4c71_bbd5_28875b97d38a_Class19 c2_1 ) ) ( type_511f0b24_a710_4c71_bbd5_28875b97d38a_Class21 c2_1 ) ) (and (and (and ( type_511f0b24_a710_4c71_bbd5_28875b97d38a_Class12 c2_2 )  ( type_511f0b24_a710_4c71_bbd5_28875b97d38a_Class13 c2_2 ) ) ( type_511f0b24_a710_4c71_bbd5_28875b97d38a_Class19 c2_2 ) ) ( type_511f0b24_a710_4c71_bbd5_28875b97d38a_Class21 c2_2 ) )) (> ( class12_Class12IntAttr3 ( obj_dfaa7ff6_b7af_42fb_bf03_b086e00980cd c2_1 )  )  ( class12_Class12IntAttr4 ( obj_dfaa7ff6_b7af_42fb_bf03_b086e00980cd c2_2 )  ) ))):named l0))
(assert (! (forall ((v Int)) (=> (and (and (and ( type_511f0b24_a710_4c71_bbd5_28875b97d38a_Class12 v )  ( type_511f0b24_a710_4c71_bbd5_28875b97d38a_Class13 v ) ) ( type_511f0b24_a710_4c71_bbd5_28875b97d38a_Class19 v ) ) ( type_511f0b24_a710_4c71_bbd5_28875b97d38a_Class21 v ) ) (not (= ( class12_Class12IntAttr4 ( obj_dfaa7ff6_b7af_42fb_bf03_b086e00980cd v )  )  18) ))):named l1))
(assert (exists ((o Int)) (and (and (and ( type_511f0b24_a710_4c71_bbd5_28875b97d38a_Class12 ( obj_dfaa7ff6_b7af_42fb_bf03_b086e00980cd o )  )  ( type_511f0b24_a710_4c71_bbd5_28875b97d38a_Class13 ( obj_dfaa7ff6_b7af_42fb_bf03_b086e00980cd o )  ) ) ( type_511f0b24_a710_4c71_bbd5_28875b97d38a_Class19 ( obj_dfaa7ff6_b7af_42fb_bf03_b086e00980cd o )  ) ) ( type_511f0b24_a710_4c71_bbd5_28875b97d38a_Class21 ( obj_dfaa7ff6_b7af_42fb_bf03_b086e00980cd o )  ) )))

 ;end of formula 